142
0 140 95 58 35 16 15 12 118 91 
67 85 108 44 116 54 77 141 88 74 
9 18 138 97 13 81 129 10 1 7 
109 29 59 84 82 134 113 31 4 110 
126 79 39 61 117 27 42 20 45 70 
99 115 76 136 73 87 17 102 114 103 
50 36 125 26 37 65 32 101 33 112 
120 48 14 52 25 107 89 71 63 8 
47 55 133 57 30 56 139 104 28 90 
123 68 105 64 83 106 6 127 72 86 
132 23 51 53 22 11 128 75 100 2 
80 111 60 124 122 38 96 43 78 137 
46 69 5 121 135 62 41 131 130 94 
119 3 24 98 19 66 34 92 21 40 
93 49 
